Minimize
+ 0.035 P_im_em~1 - 0.035 P_ex_em~1
+ 0.035 P_im_em~2 - 0.035 P_ex_em~2
+ 0.035 P_im_em~3 - 0.035 P_ex_em~3
+ 0.035 P_im_em~4 - 0.035 P_ex_em~4
+ 0.035 P_im_em~5 - 0.035 P_ex_em~5
+ 0.035 P_im_em~6 - 0.035 P_ex_em~6
+ 0.035 P_im_em~7 - 0.035 P_ex_em~7
+ 0.035 P_im_em~8 - 0.035 P_ex_em~8
+ 0.035 P_im_em~9 - 0.035 P_ex_em~9
+ 0.035 P_im_em~10 - 0.035 P_ex_em~10
+ 0.035 P_im_em~11 - 0.035 P_ex_em~11
+ 0.035 P_im_em~12 - 0.035 P_ex_em~12
+ 0.035 P_im_em~13 - 0.035 P_ex_em~13
+ 0.035 P_im_em~14 - 0.035 P_ex_em~14
+ 0.035 P_im_em~15 - 0.035 P_ex_em~15
+ 0.035 P_im_em~16 - 0.035 P_ex_em~16
+ 0.035 P_im_em~17 - 0.035 P_ex_em~17
+ 0.035 P_im_em~18 - 0.035 P_ex_em~18
+ 0.035 P_im_em~19 - 0.035 P_ex_em~19
+ 0.035 P_im_em~20 - 0.035 P_ex_em~20
+ 0.035 P_im_em~21 - 0.035 P_ex_em~21
+ 0.035 P_im_em~22 - 0.035 P_ex_em~22
+ 0.035 P_im_em~23 - 0.035 P_ex_em~23
+ 0.035 P_im_em~24 - 0.035 P_ex_em~24
- 0 P_d_hh~1
- 0 P_d_hh~2
- 0 P_d_hh~3
- 0 P_d_hh~4
- 0 P_d_hh~5
- 0 P_d_hh~6
- 0 P_d_hh~7
- 0 P_d_hh~8
- 0 P_d_hh~9
- 0 P_d_hh~10
- 0 P_d_hh~11
- 0 P_d_hh~12
- 0 P_d_hh~13
- 0 P_d_hh~14
- 0 P_d_hh~15
- 0 P_d_hh~16
- 0 P_d_hh~17
- 0 P_d_hh~18
- 0 P_d_hh~19
- 0 P_d_hh~20
- 0 P_d_hh~21
- 0 P_d_hh~22
- 0 P_d_hh~23
- 0 P_d_hh~24
+ 0.012 P_g_pv~1
+ 0.012 P_g_pv~2
+ 0.012 P_g_pv~3
+ 0.012 P_g_pv~4
+ 0.012 P_g_pv~5
+ 0.012 P_g_pv~6
+ 0.012 P_g_pv~7
+ 0.012 P_g_pv~8
+ 0.012 P_g_pv~9
+ 0.012 P_g_pv~10
+ 0.012 P_g_pv~11
+ 0.012 P_g_pv~12
+ 0.012 P_g_pv~13
+ 0.012 P_g_pv~14
+ 0.012 P_g_pv~15
+ 0.012 P_g_pv~16
+ 0.012 P_g_pv~17
+ 0.012 P_g_pv~18
+ 0.012 P_g_pv~19
+ 0.012 P_g_pv~20
+ 0.012 P_g_pv~21
+ 0.012 P_g_pv~22
+ 0.012 P_g_pv~23
+ 0.012 P_g_pv~24

Subject To
0 y_em~1 - P_im_em~1 <= 0
0 y_em~2 - P_im_em~2 <= 0
0 y_em~3 - P_im_em~3 <= 0
0 y_em~4 - P_im_em~4 <= 0
0 y_em~5 - P_im_em~5 <= 0
0 y_em~6 - P_im_em~6 <= 0
0 y_em~7 - P_im_em~7 <= 0
0 y_em~8 - P_im_em~8 <= 0
0 y_em~9 - P_im_em~9 <= 0
0 y_em~10 - P_im_em~10 <= 0
0 y_em~11 - P_im_em~11 <= 0
0 y_em~12 - P_im_em~12 <= 0
0 y_em~13 - P_im_em~13 <= 0
0 y_em~14 - P_im_em~14 <= 0
0 y_em~15 - P_im_em~15 <= 0
0 y_em~16 - P_im_em~16 <= 0
0 y_em~17 - P_im_em~17 <= 0
0 y_em~18 - P_im_em~18 <= 0
0 y_em~19 - P_im_em~19 <= 0
0 y_em~20 - P_im_em~20 <= 0
0 y_em~21 - P_im_em~21 <= 0
0 y_em~22 - P_im_em~22 <= 0
0 y_em~23 - P_im_em~23 <= 0
0 y_em~24 - P_im_em~24 <= 0
 P_im_em~1 - 1e+06 y_em~1 <= 0
 P_im_em~2 - 1e+06 y_em~2 <= 0
 P_im_em~3 - 1e+06 y_em~3 <= 0
 P_im_em~4 - 1e+06 y_em~4 <= 0
 P_im_em~5 - 1e+06 y_em~5 <= 0
 P_im_em~6 - 1e+06 y_em~6 <= 0
 P_im_em~7 - 1e+06 y_em~7 <= 0
 P_im_em~8 - 1e+06 y_em~8 <= 0
 P_im_em~9 - 1e+06 y_em~9 <= 0
 P_im_em~10 - 1e+06 y_em~10 <= 0
 P_im_em~11 - 1e+06 y_em~11 <= 0
 P_im_em~12 - 1e+06 y_em~12 <= 0
 P_im_em~13 - 1e+06 y_em~13 <= 0
 P_im_em~14 - 1e+06 y_em~14 <= 0
 P_im_em~15 - 1e+06 y_em~15 <= 0
 P_im_em~16 - 1e+06 y_em~16 <= 0
 P_im_em~17 - 1e+06 y_em~17 <= 0
 P_im_em~18 - 1e+06 y_em~18 <= 0
 P_im_em~19 - 1e+06 y_em~19 <= 0
 P_im_em~20 - 1e+06 y_em~20 <= 0
 P_im_em~21 - 1e+06 y_em~21 <= 0
 P_im_em~22 - 1e+06 y_em~22 <= 0
 P_im_em~23 - 1e+06 y_em~23 <= 0
 P_im_em~24 - 1e+06 y_em~24 <= 0
0 y_em~1 + P_ex_em~1 >= 0
0 y_em~2 + P_ex_em~2 >= 0
0 y_em~3 + P_ex_em~3 >= 0
0 y_em~4 + P_ex_em~4 >= 0
0 y_em~5 + P_ex_em~5 >= 0
0 y_em~6 + P_ex_em~6 >= 0
0 y_em~7 + P_ex_em~7 >= 0
0 y_em~8 + P_ex_em~8 >= 0
0 y_em~9 + P_ex_em~9 >= 0
0 y_em~10 + P_ex_em~10 >= 0
0 y_em~11 + P_ex_em~11 >= 0
0 y_em~12 + P_ex_em~12 >= 0
0 y_em~13 + P_ex_em~13 >= 0
0 y_em~14 + P_ex_em~14 >= 0
0 y_em~15 + P_ex_em~15 >= 0
0 y_em~16 + P_ex_em~16 >= 0
0 y_em~17 + P_ex_em~17 >= 0
0 y_em~18 + P_ex_em~18 >= 0
0 y_em~19 + P_ex_em~19 >= 0
0 y_em~20 + P_ex_em~20 >= 0
0 y_em~21 + P_ex_em~21 >= 0
0 y_em~22 + P_ex_em~22 >= 0
0 y_em~23 + P_ex_em~23 >= 0
0 y_em~24 + P_ex_em~24 >= 0
 1e+06 y_em~1  + P_ex_em~1 <= 1e+06
 1e+06 y_em~2  + P_ex_em~2 <= 1e+06
 1e+06 y_em~3  + P_ex_em~3 <= 1e+06
 1e+06 y_em~4  + P_ex_em~4 <= 1e+06
 1e+06 y_em~5  + P_ex_em~5 <= 1e+06
 1e+06 y_em~6  + P_ex_em~6 <= 1e+06
 1e+06 y_em~7  + P_ex_em~7 <= 1e+06
 1e+06 y_em~8  + P_ex_em~8 <= 1e+06
 1e+06 y_em~9  + P_ex_em~9 <= 1e+06
 1e+06 y_em~10  + P_ex_em~10 <= 1e+06
 1e+06 y_em~11  + P_ex_em~11 <= 1e+06
 1e+06 y_em~12  + P_ex_em~12 <= 1e+06
 1e+06 y_em~13  + P_ex_em~13 <= 1e+06
 1e+06 y_em~14  + P_ex_em~14 <= 1e+06
 1e+06 y_em~15  + P_ex_em~15 <= 1e+06
 1e+06 y_em~16  + P_ex_em~16 <= 1e+06
 1e+06 y_em~17  + P_ex_em~17 <= 1e+06
 1e+06 y_em~18  + P_ex_em~18 <= 1e+06
 1e+06 y_em~19  + P_ex_em~19 <= 1e+06
 1e+06 y_em~20  + P_ex_em~20 <= 1e+06
 1e+06 y_em~21  + P_ex_em~21 <= 1e+06
 1e+06 y_em~22  + P_ex_em~22 <= 1e+06
 1e+06 y_em~23  + P_ex_em~23 <= 1e+06
 1e+06 y_em~24  + P_ex_em~24 <= 1e+06
P_d_hh~1 = 0.374
P_d_hh~2 = 0.948
P_d_hh~3 = 0.098
P_d_hh~4 = 0.119
P_d_hh~5 = 0.096
P_d_hh~6 = 0.118
P_d_hh~7 = 0.094
P_d_hh~8 = 0.115
P_d_hh~9 = 0.278
P_d_hh~10 = 0.115
P_d_hh~11 = 0.597
P_d_hh~12 = 0.881
P_d_hh~13 = 1.658
P_d_hh~14 = 0.586
P_d_hh~15 = 0.193
P_d_hh~16 = 0.23
P_d_hh~17 = 0.103
P_d_hh~18 = 0.1
P_d_hh~19 = 0.1
P_d_hh~20 = 0.102
P_d_hh~21 = 0.132
P_d_hh~22 = 0.324
P_d_hh~23 = 0.235
P_d_hh~24 = 0.196
P_g_pv~1 = 0
P_g_pv~2 = 0
P_g_pv~3 = 0
P_g_pv~4 = 0
P_g_pv~5 = 0
P_g_pv~6 = 0
P_g_pv~7 = 0.045
P_g_pv~8 = 0.126
P_g_pv~9 = 0.3
P_g_pv~10 = 0.49
P_g_pv~11 = 0.632
P_g_pv~12 = 0.754
P_g_pv~13 = 0.796
P_g_pv~14 = 0.766
P_g_pv~15 = 0.758
P_g_pv~16 = 0.643
P_g_pv~17 = 0.499
P_g_pv~18 = 0.331
P_g_pv~19 = 0.136
P_g_pv~20 = 0.002
P_g_pv~21 = 0
P_g_pv~22 = 0
P_g_pv~23 = 0
P_g_pv~24 = 0
P_g_pv~1 + P_im_em~1 - P_ex_em~1 - P_d_hh~1 = 0
P_g_pv~2 + P_im_em~2 - P_ex_em~2 - P_d_hh~2 = 0
P_g_pv~3 + P_im_em~3 - P_ex_em~3 - P_d_hh~3 = 0
P_g_pv~4 + P_im_em~4 - P_ex_em~4 - P_d_hh~4 = 0
P_g_pv~5 + P_im_em~5 - P_ex_em~5 - P_d_hh~5 = 0
P_g_pv~6 + P_im_em~6 - P_ex_em~6 - P_d_hh~6 = 0
P_g_pv~7 + P_im_em~7 - P_ex_em~7 - P_d_hh~7 = 0
P_g_pv~8 + P_im_em~8 - P_ex_em~8 - P_d_hh~8 = 0
P_g_pv~9 + P_im_em~9 - P_ex_em~9 - P_d_hh~9 = 0
P_g_pv~10 + P_im_em~10 - P_ex_em~10 - P_d_hh~10 = 0
P_g_pv~11 + P_im_em~11 - P_ex_em~11 - P_d_hh~11 = 0
P_g_pv~12 + P_im_em~12 - P_ex_em~12 - P_d_hh~12 = 0
P_g_pv~13 + P_im_em~13 - P_ex_em~13 - P_d_hh~13 = 0
P_g_pv~14 + P_im_em~14 - P_ex_em~14 - P_d_hh~14 = 0
P_g_pv~15 + P_im_em~15 - P_ex_em~15 - P_d_hh~15 = 0
P_g_pv~16 + P_im_em~16 - P_ex_em~16 - P_d_hh~16 = 0
P_g_pv~17 + P_im_em~17 - P_ex_em~17 - P_d_hh~17 = 0
P_g_pv~18 + P_im_em~18 - P_ex_em~18 - P_d_hh~18 = 0
P_g_pv~19 + P_im_em~19 - P_ex_em~19 - P_d_hh~19 = 0
P_g_pv~20 + P_im_em~20 - P_ex_em~20 - P_d_hh~20 = 0
P_g_pv~21 + P_im_em~21 - P_ex_em~21 - P_d_hh~21 = 0
P_g_pv~22 + P_im_em~22 - P_ex_em~22 - P_d_hh~22 = 0
P_g_pv~23 + P_im_em~23 - P_ex_em~23 - P_d_hh~23 = 0
P_g_pv~24 + P_im_em~24 - P_ex_em~24 - P_d_hh~24 = 0

Bounds
0 <= P_im_em~1 <= 1e+06
0 <= P_im_em~2 <= 1e+06
0 <= P_im_em~3 <= 1e+06
0 <= P_im_em~4 <= 1e+06
0 <= P_im_em~5 <= 1e+06
0 <= P_im_em~6 <= 1e+06
0 <= P_im_em~7 <= 1e+06
0 <= P_im_em~8 <= 1e+06
0 <= P_im_em~9 <= 1e+06
0 <= P_im_em~10 <= 1e+06
0 <= P_im_em~11 <= 1e+06
0 <= P_im_em~12 <= 1e+06
0 <= P_im_em~13 <= 1e+06
0 <= P_im_em~14 <= 1e+06
0 <= P_im_em~15 <= 1e+06
0 <= P_im_em~16 <= 1e+06
0 <= P_im_em~17 <= 1e+06
0 <= P_im_em~18 <= 1e+06
0 <= P_im_em~19 <= 1e+06
0 <= P_im_em~20 <= 1e+06
0 <= P_im_em~21 <= 1e+06
0 <= P_im_em~22 <= 1e+06
0 <= P_im_em~23 <= 1e+06
0 <= P_im_em~24 <= 1e+06
0 <= P_ex_em~1 <= 1e+06
0 <= P_ex_em~2 <= 1e+06
0 <= P_ex_em~3 <= 1e+06
0 <= P_ex_em~4 <= 1e+06
0 <= P_ex_em~5 <= 1e+06
0 <= P_ex_em~6 <= 1e+06
0 <= P_ex_em~7 <= 1e+06
0 <= P_ex_em~8 <= 1e+06
0 <= P_ex_em~9 <= 1e+06
0 <= P_ex_em~10 <= 1e+06
0 <= P_ex_em~11 <= 1e+06
0 <= P_ex_em~12 <= 1e+06
0 <= P_ex_em~13 <= 1e+06
0 <= P_ex_em~14 <= 1e+06
0 <= P_ex_em~15 <= 1e+06
0 <= P_ex_em~16 <= 1e+06
0 <= P_ex_em~17 <= 1e+06
0 <= P_ex_em~18 <= 1e+06
0 <= P_ex_em~19 <= 1e+06
0 <= P_ex_em~20 <= 1e+06
0 <= P_ex_em~21 <= 1e+06
0 <= P_ex_em~22 <= 1e+06
0 <= P_ex_em~23 <= 1e+06
0 <= P_ex_em~24 <= 1e+06
0 <= P_d_hh~1 <= 5000
0 <= P_d_hh~2 <= 5000
0 <= P_d_hh~3 <= 5000
0 <= P_d_hh~4 <= 5000
0 <= P_d_hh~5 <= 5000
0 <= P_d_hh~6 <= 5000
0 <= P_d_hh~7 <= 5000
0 <= P_d_hh~8 <= 5000
0 <= P_d_hh~9 <= 5000
0 <= P_d_hh~10 <= 5000
0 <= P_d_hh~11 <= 5000
0 <= P_d_hh~12 <= 5000
0 <= P_d_hh~13 <= 5000
0 <= P_d_hh~14 <= 5000
0 <= P_d_hh~15 <= 5000
0 <= P_d_hh~16 <= 5000
0 <= P_d_hh~17 <= 5000
0 <= P_d_hh~18 <= 5000
0 <= P_d_hh~19 <= 5000
0 <= P_d_hh~20 <= 5000
0 <= P_d_hh~21 <= 5000
0 <= P_d_hh~22 <= 5000
0 <= P_d_hh~23 <= 5000
0 <= P_d_hh~24 <= 5000
0 <= P_g_pv~1 <= 5000
0 <= P_g_pv~2 <= 5000
0 <= P_g_pv~3 <= 5000
0 <= P_g_pv~4 <= 5000
0 <= P_g_pv~5 <= 5000
0 <= P_g_pv~6 <= 5000
0 <= P_g_pv~7 <= 5000
0 <= P_g_pv~8 <= 5000
0 <= P_g_pv~9 <= 5000
0 <= P_g_pv~10 <= 5000
0 <= P_g_pv~11 <= 5000
0 <= P_g_pv~12 <= 5000
0 <= P_g_pv~13 <= 5000
0 <= P_g_pv~14 <= 5000
0 <= P_g_pv~15 <= 5000
0 <= P_g_pv~16 <= 5000
0 <= P_g_pv~17 <= 5000
0 <= P_g_pv~18 <= 5000
0 <= P_g_pv~19 <= 5000
0 <= P_g_pv~20 <= 5000
0 <= P_g_pv~21 <= 5000
0 <= P_g_pv~22 <= 5000
0 <= P_g_pv~23 <= 5000
0 <= P_g_pv~24 <= 5000

Binaries
y_em~1
y_em~2
y_em~3
y_em~4
y_em~5
y_em~6
y_em~7
y_em~8
y_em~9
y_em~10
y_em~11
y_em~12
y_em~13
y_em~14
y_em~15
y_em~16
y_em~17
y_em~18
y_em~19
y_em~20
y_em~21
y_em~22
y_em~23
y_em~24

End